63
SMILES=C=C(CSCCCSc1ccc(C(=O)C(C)(C)C(=O)OC)cc1)CN1CCOCC1 prior_initializer input=corrupted-soft; stress=3.196210; explicit hydrogens
H  -2.28350186 -3.64474487  3.28696728
H  -2.18278432 -3.36683464  5.10962486
H   0.87302011  2.30964637 -0.62122685
H  -2.99594450  2.65201998 -1.93895245
H   1.03840697  3.52207541 -3.17114735
H  -1.33194435  0.35081860 -2.53339052
H   2.02393150 -1.52049148 -9.43093777
H   1.75516415 -1.93568683 -7.76140642
H   3.17229223 -1.02826202 -8.21971035
H  -3.53487802 -1.23693645  2.86264467
H  -2.14640355 -0.35500202  2.32337856
H  -0.06405450 -0.76312649  2.87216926
H  -0.22793998 -2.46449327  2.61813211
H   0.07560571 -0.94498962 -4.31913519
H  -0.65295553 -0.87434131 -5.90000916
H   0.92639571 -1.57684517 -5.70812225
H   2.73027635  1.11228275 -4.72688007
H   1.73992634  0.11253024 -3.70539331
H   2.60856032 -0.59709066 -5.04778385
H   1.69514239 -2.58638692  6.79454994
H   2.70533562 -1.19612896  7.01692486
H   2.28338027 -4.20609951  5.25646973
H   3.66059422 -3.96173477  4.23466396
H  -0.88465059  4.00032043  2.64034653
H  -1.12384927  2.38165879  2.10294461
H  -4.70352602  2.22181892  3.19229937
H  -3.66616750  1.53219080  1.99940014
H   0.66190964 -0.60749531  5.82829475
H   2.05257821 -0.34174642  4.83303976
H   1.51535738 -3.52541709  3.05730891
H   2.55786014 -2.14326477  3.07459784
H  -3.56297112  4.05940390  2.59635043
H  -2.64530659  3.56070399  3.97090554
C   1.53954315  0.47212070 -6.88663149
C   0.02520244  1.41349041 -4.84458113
C  -2.34711242 -3.04543948  4.12097645
C  -1.71118712 -1.70060766  3.91115332
C   0.21911566  2.93882275 -1.31375241
C  -2.09994364  2.16240835 -1.69236505
C   0.50083143  2.66511893 -2.62813663
C  -1.55443430  1.34145284 -2.79363275
C  -1.13702691  2.73793721 -0.78908175
C  -0.50186461  2.07661176 -3.55290031
C   2.13349414 -1.19171560 -8.41291809
C  -2.65113831 -0.77142256  3.24865460
C  -0.24532340 -1.80104315  3.56592917
C   0.22535513 -0.95369917 -5.31095839
C   2.20197415  0.18967995 -4.60449028
C   2.30583382 -1.86739993  6.28366184
C   2.82890940 -3.44906855  4.72273874
C  -1.63945746  3.38081121  2.10080433
C  -3.61391664  1.96467853  3.00299025
C   1.45734334 -1.09827948  5.29367733
C   1.96423447 -2.80674434  3.69027209
C  -2.85830164  3.25116181  2.91975594
C   0.87856424  0.57557636 -5.62666845
N   0.89658737 -1.97001803  4.29250813
O   1.99290657  1.97684121 -7.39484215
O  -0.78457713  2.40671778 -5.88467598
O   1.42327595  0.02273760 -8.24517345
O   3.36240840 -2.52156568  5.62884712
S  -1.67401361  3.95775604  0.42254642
S  -3.20614076  0.70472711  4.18937445
