23
SMILES=CCCCCCC prior_initializer input=corrupted-soft; stress=1.003791; explicit hydrogens
H   0.33111072 -3.29209375  0.06686988
H  -0.51516485 -2.01090455  0.86254030
H  -1.22963178 -2.76685047 -0.51034427
H  -1.85605979  0.63752496  1.70542741
H  -1.22442627 -0.26694128  0.37084928
H  -2.69025612  0.62762690  0.14664167
H  -0.48812976 -0.62667602 -1.09891725
H   0.57023972 -1.67910087 -1.90584958
H  -0.97451699  1.89578950 -0.87765306
H  -1.22455239  2.87329578  0.53112984
H   1.38822913 -0.88412064  0.82072544
H   2.41494656 -1.02923465 -0.57019097
H   0.53305113  1.04445636  1.53565300
H   0.99956369  2.55719399  0.82781315
H   2.38595772  1.24830568 -0.35806501
H   0.99777824  1.06684411 -1.38471365
C  -0.27510840 -2.49995852 -0.11978666
C  -1.93783569  0.89862525  0.74889815
C   0.36833528 -1.44627237 -0.97753906
C  -0.92421836  1.85894191  0.20923063
C   1.45511353 -0.66952926 -0.23381473
C   0.51132500  1.61530268  0.61864191
C   1.38424933  0.84777522 -0.40754658
