29
SMILES=CCCCCCCCC prior_initializer input=corrupted-soft; stress=0.860843; explicit hydrogens
H   0.78597867 -1.43350744  0.98438686
H   2.33549070 -2.05200911  1.50510049
H   0.84424269 -2.74024725  2.14699674
H  -2.03258300  1.10381866 -3.81990194
H  -1.11090851 -0.27520677 -4.30400085
H  -2.85028291 -0.36297265 -4.26022196
H   0.29088467 -0.70567417  3.23653364
H   1.89868748 -0.92820519  3.81991911
H  -1.87605369 -1.47430682 -2.27599692
H  -2.78029466 -0.06046639 -1.81692767
H   2.43750167  0.30222994  1.46038055
H   2.27595782  1.13563609  2.96821642
H  -0.64020967  1.22778988 -2.23323917
H   0.18425208 -0.29790556 -2.18123269
H  -0.32816565  0.90886605  2.14605188
H   0.64981639  2.32151771  2.01216197
H  -1.56641650  0.55829710  0.13045181
H  -0.41130516 -0.70053446  0.11042649
H   1.37172055  0.92275608 -0.25727388
H   0.21706608  2.21680808 -0.23077266
C   1.48846924 -2.01116204  2.03768182
C  -2.01478720  0.01096398 -3.80767870
C   1.34475267 -0.79198980  2.93054628
C  -1.91643000 -0.41747656 -2.34841084
C   1.74815464  0.51009446  2.26421738
C  -0.68909752  0.19930962 -1.77109003
C   0.56947774  1.31199503  1.67883110
C  -0.66135645  0.28700984 -0.31379187
C   0.43543798  1.23457193  0.18863684
