23
SMILES=CCCCCCC local2geo input=clean-soft seed=mds; bond=0.002315 angle=0.129830 clash=0.066875; explicit hydrogens
H  -3.27268624 -1.09113932 -1.28966868
H  -3.61127472 -1.46057391  0.21408863
H  -3.89967966  0.31857985 -0.97089678
H   2.77188778 -1.63496304  1.00102758
H   3.22796297 -1.35175288 -0.43713206
H   3.30855536 -0.26730117  1.40257728
H  -2.47392654 -0.27561927  1.41377819
H  -2.61555099  1.24381089  0.45145169
H   2.95785308  0.10298270 -1.26708055
H   2.99509120  1.21733487  0.52699023
H  -0.67495638 -0.11999173  1.06892264
H  -0.88240981 -0.66847169 -0.68449646
H   1.20629203 -0.01146788  0.57115978
H   1.17995596 -0.04092767 -1.11384702
H  -0.27110606  1.18420506 -1.32582986
H  -0.17910717  1.70215809  0.69652724
C  -3.77646470 -0.62274122 -0.44768530
C   3.42509460 -0.89789534  0.52070463
C  -2.62356734  0.17933816  0.46066862
C   3.01370096  0.52913272 -0.30586541
C  -1.04173684  0.02794345  0.08616285
C   1.33472919  0.60124314 -0.28690422
C  -0.09865607  1.33611584 -0.28465334
