60
SMILES=C=C(CSCCCSc1ccc(C(=O)C(C)(C)N2CCOCC2)cc1)C(=O)OC local2geo input=clean-soft seed=mds; bond=0.000456 angle=0.078328 clash=0.040605; explicit hydrogens
H   10.92161274  0.78211546  1.89842153
H   10.92887115 -1.14153481  1.94814730
H  -0.85232925 -0.64429301  1.69377196
H  -1.02632439  1.26894581  0.08036061
H  -2.51390409 -0.57902735  1.72247326
H  -2.31796861 -0.58384740 -1.86702931
H   13.57856560  0.71042216 -2.36328936
H   13.72203636  1.04293692 -0.62837601
H   13.80890274 -0.70905858 -0.98918241
H   8.85753918 -0.31991607  1.27051103
H   8.85406494  1.14505553  0.32356155
H  -6.36305523 -1.89149094  1.52770710
H  -6.46853638 -2.19782138 -0.20193620
H  -6.54451799 -0.70961118  1.32595956
H  -6.17985773  0.87518865 -1.79863536
H  -6.38176489 -1.16771257 -1.37850022
H  -6.07059860 -0.85457134 -2.55441475
H  -9.61028290  0.99494153  2.16330934
H  -9.95470047 -0.22297521  0.59092683
H  -9.92139149  0.41129512 -1.07067955
H  -9.46431828  2.33417010 -1.47301829
H   2.84118342  0.81500638  0.50872940
H   2.84895682 -0.79174423  1.28434658
H   5.83176088  1.02838147  0.20335700
H   5.89271021 -0.29203781  1.37212503
H  -7.98208475  0.80456746  2.07846475
H  -8.36484146 -0.74786586  1.03420174
H  -8.35091114 -0.08634264 -1.20477951
H  -7.90025234  1.48500407 -1.87225974
H   4.41326380 -1.54770410  0.14128871
H   4.37274361 -0.39061233 -1.12007105
C   11.52887154  0.50989902 -0.68800426
C  -4.65239334  0.03008573  0.16361561
C   11.03719711 -0.19362658  1.46386838
C   10.49799252 -0.21389587  0.20220689
C  -0.97180456 -1.27287209  0.83639282
C  -1.02096653  0.48862454 -0.65533239
C  -2.43018699 -1.19814086  0.85280305
C  -2.34460354  0.13118722 -1.08061647
C  -0.20940660 -0.56394023 -0.14587311
C  -3.21039414 -0.53265738 -0.16309966
C   13.74510670  0.28011969 -1.39398074
C   8.95201874  0.07475511  0.28149793
C  -6.60584879 -1.47162390  0.57591492
C  -6.33122349 -0.18195409 -1.76266634
C  -9.83984566  0.66587782  1.17598319
C  -9.75128365  1.45069933 -0.92989683
C   2.91027808 -0.24629888  0.36870959
C   5.88057232 -0.02869948  0.33528087
C  -8.32582092  0.30508551  1.18849635
C  -8.27919102  0.96343374 -1.01288819
C   4.41927004 -0.49852139 -0.05498782
C  -6.18405342 -0.19630915 -0.21413863
N  -7.35176754  0.76073921  0.13597637
O   11.19714737  1.69670582 -0.97217923
O  -4.52914429  0.29120585  1.38142562
O   12.38986588 -0.18592823 -1.59780669
O  -10.10256004  1.82589018  0.39729494
S   1.55004716 -0.90289438 -0.76577836
S   7.42755175 -0.60680997 -0.56771058
