31
SMILES=COC(=O)Cc1c(C)oc2cc(N)ccc2c1=O local2geo input=clean-soft seed=mds; bond=0.001849 angle=0.087249 clash=0.074282; explicit hydrogens
H  -3.67929673 -1.94660532 -0.67692804
H  -3.55124044  1.41647279  0.34215808
H  -2.58815527 -0.79777497  1.70279109
H  -5.94390965 -1.60671651 -0.23515876
H  -5.81202316 -0.50592262 -1.40350950
H   6.38174391 -1.49338949  0.43426019
H   6.34941196 -1.71777630 -1.40278459
H   6.51304913 -0.01654268 -0.60911715
H   0.76463574  2.85360122 -0.85435933
H   0.46910322  2.71647120  1.19345737
H  -0.57963574  3.30347061 -0.08856244
H   2.26755548 -0.88929480  0.34786341
H   2.37640953  0.71748990  0.62590396
C   4.07382059 -0.15508553 -0.00189245
C  -0.11530263  1.38987780 -0.11970666
C  -3.85932589 -1.60360980  0.31095243
C  -4.52298975 -0.34014878  0.09623171
C   0.71270078  0.16912249 -0.23987873
C  -3.58365774  0.66482979 -0.39938596
C  -2.54864717 -1.47265470  0.88689148
C  -0.17036985 -0.85621333  0.37345919
C  -2.13073850  0.36671066 -0.52454537
C  -1.58942294 -0.87139034 -0.02860981
C   6.41867638 -1.07499111 -0.54641306
C   0.39680594  2.92490792  0.14671102
C   2.40374231  0.02903814 -0.18522522
N  -5.97275782 -0.59459597 -0.40021977
O   4.10355616 -0.38495180  1.24462461
O  -0.16973160 -0.56184381  1.61262596
O   4.88927317 -1.07800484 -0.79764777
O  -1.30327845  1.41552031 -0.80398548
