41
SMILES=CCCCCCCCCCCCC local2geo input=clean-soft seed=mds; bond=0.004750 angle=0.095526 clash=0.039752; explicit hydrogens
H   9.90625095 -1.68784869 -1.35898459
H   10.17176819 -1.49221969  0.38977087
H   10.25702763  0.00805762 -0.90050632
H  -9.86662865 -2.08368063  0.97829914
H  -10.21221733 -1.26087379 -0.57127267
H  -10.21291637 -0.34089628  1.18031108
H   8.39576244 -1.36733270  0.53870267
H   8.65880394  0.33294308  0.26736367
H  -8.47679234 -0.97513717 -0.79481196
H  -8.65784740  0.35812110  0.41410860
H   6.98021173  0.74564642 -0.11079801
H   6.78096342 -0.76873177  0.78194195
H  -6.80183029 -0.67999446 -0.86377615
H  -6.96667385  0.70994407  0.21480516
H   5.26632881  1.07396042  0.05904626
H   5.11367798 -0.38812593  0.96384037
H  -5.10458231 -0.41084751 -0.98041356
H  -5.26272440  1.05572045 -0.08977596
H   3.54189777  1.32787812 -0.11927345
H   3.41989350  0.09576341  1.09243047
H  -3.42978716  0.10289432 -1.08182764
H  -3.54404640  1.31543100  0.15359069
H   1.78073812  1.39297378 -0.49932387
H   1.71827149  0.68451846  1.08929861
H  -1.72795010  0.63102913 -1.10205674
H  -1.76305985  1.41089463  0.45610473
H   0.01669081  1.15387988 -0.87623310
H  -0.02227832  1.12452674  0.87280720
C   10.11793804 -1.00035787 -0.56497324
C  -10.10595798 -1.15863633  0.49423668
C   8.50782299 -0.61208457 -0.21198799
C  -8.49929619 -0.68445760  0.23615699
C   6.82424641 -0.30859491 -0.18551059
C  -6.82003927 -0.34953332  0.15279298
C   5.13659286  0.01635860 -0.02452803
C  -5.13337421 -0.00257344  0.00422647
C   3.43342614  0.27936435  0.03984981
C  -3.42352247  0.26967511 -0.02772587
C   1.72136319  0.47962692  0.04368543
C  -1.72121501  0.47087172 -0.04649307
C   0.00305917  0.53184777 -0.01309662
