30
SMILES=CCCCCCc1ccccc1 local2geo input=clean-soft; bond=0.007322 angle=0.157695 clash=0.063361 anti=0.888555; explicit hydrogens
H   0.18168637  1.67869329  3.07472205
H   0.16866910 -1.32516098  3.40051532
H   2.13682675 -0.61892301  2.77285814
H  -1.83241022 -0.03684588  1.50785589
H   2.22376561  0.05943209  0.34703103
H  -0.80199111  3.11558890 -0.21592021
H  -1.85559273  1.63015771  0.65100664
H  -0.06440264  2.03741026  0.91937864
H  -0.64704812 -2.47310281  0.38538280
H   1.31876302 -2.10477328 -0.11153563
H   0.54313296  1.17922759 -0.79145437
H  -1.23674452  0.33970132 -0.80808592
H   0.83022797 -1.34703052 -1.87754083
H  -1.22000313 -1.49892032 -1.42366791
H   0.86664885  0.31235570 -2.43780732
H   0.08646165  1.70177746 -2.96326590
H  -1.64785814 -0.88646597 -3.07072687
H   0.40318632 -1.14278209 -3.67706704
C   0.63053924  0.75657976  3.41238093
C  -0.42329842 -0.40686521  3.28366804
C   1.86362386  0.40819466  2.50719810
C  -0.89764047 -0.47628161  1.79093480
C   1.41477299  0.31810459  1.01634324
C   0.18329588 -0.53741568  0.78516889
C  -1.00087249  2.18739724  0.33015355
C   0.26997292 -2.04429626 -0.03415668
C  -0.52605462  1.13475275 -1.02760756
C  -0.18109211 -1.74126673 -1.72216713
C  -0.16314189  0.67356521 -2.69586539
C  -0.62342304 -0.89280713 -3.32772803
