29
SMILES=O=C(CC(F)(F)F)NCC1CN(c2ccc3c(c2)CCCc2cn[nH]c2-3)C(=O)O1 local2geo input=clean mean_edge_confidence=0.999993; heavy atoms only
C  -2.21622682  1.13364995  1.11021101
C  -1.30936289  1.05172026  1.11038613
C  -0.44299254 -2.68770218  0.17662768
C   2.19473433 -2.06827044  0.70886922
C   1.06243193 -2.68074870  0.47012720
C   1.04467952 -2.24134088  0.53152764
C   1.29808545 -2.46986270 -0.62436301
C  -0.40121424 -2.22263384  1.03942144
C   1.73736596 -1.36418116 -1.17036450
C   0.66656679 -2.12280202 -0.43848920
C  -0.29173857 -2.44327021 -0.93163437
C   1.47942436  2.72147703  0.20363580
C   0.35968366  1.18937123  0.02537405
C   2.69862676 -0.93563992 -2.72561932
C   1.04363573 -0.15357457 -1.75312912
C  -0.98030025  1.21247280 -0.91410464
C  -1.96040058  2.33676338 -0.78598911
C   2.17920303  1.21639323 -1.75237679
C  -0.80108285  2.69693184 -0.44956046
N  -1.59015262 -2.58835888  0.69673789
N  -2.06938529  0.59082305  0.18829301
N  -1.86282480 -0.14805856  0.05893423
N  -1.84345865 -2.53527427 -0.93635231
O  -2.81305504  0.28677595  2.03181291
O  -1.45382881  0.47217903  2.38482690
O  -1.03409517  2.20844960  0.97074646
F   2.76628280  3.09034371  0.43229750
F   1.17673922  3.26747537 -0.93137532
F   1.36265957  3.18689227  1.27352870
