60
SMILES=C=C(CSCCCSc1ccc(C(=O)C(C)(C)N2CCOCC2)cc1)C(=O)OC local2geo input=clean-soft; bond=0.020130 angle=0.209311 clash=0.400974 ring=0.005987 conj=0.296965 anti=1.828189 chain=0.000000; anti_worst_deg=148.30 anti_within30=0.000; explicit hydrogens
H  -0.65778744  2.61860228  2.78345466
H   0.99231011  2.16040730  2.94078493
H  -0.70574886  0.19151379  2.61664724
H   1.62697828  0.32682660  1.41854823
H  -2.44138193 -0.90503490  2.94361091
H   0.09566890 -1.22485948  2.99540472
H   3.70098495  0.29424441  2.09254479
H   2.71336222  2.20187259  2.72713304
H   2.44790745  0.64248532  3.04990482
H  -0.94724792  1.72486424  0.09292050
H  -0.32313195  2.82402301 -1.38036084
H   0.19971105 -2.85133815  0.67743301
H   1.48358417 -1.93139923  0.31643936
H  -0.02232732 -1.43060279  0.41128924
H  -2.14571261  1.28550470  2.12866116
H  -1.15524459  1.77003896  1.50336528
H  -3.02307725  1.03131354  0.98163414
H   2.75179052 -0.13203318 -0.61246240
H   2.10046077  1.23657596 -0.60179567
H   2.11164474 -2.67618871 -1.89832234
H   2.95353699 -1.64853251 -1.03582406
H  -3.86777616 -0.15488128  0.12103202
H  -3.35987902 -1.69596803  0.23408903
H  -0.98060244 -2.46483779 -2.87781692
H  -2.21697831 -1.02885854 -3.45787930
H   1.11431015  0.54762149 -3.17951536
H   0.88288450  2.08107328 -2.24681473
H   0.26677245 -1.63919926 -2.05051208
H   1.39308476 -0.84996796 -0.80449766
H  -3.55728936 -1.47932279 -2.32465911
H  -2.62234735 -3.06607699 -1.23157668
C   2.14540195  2.82289553  0.70285213
C  -1.50061560 -1.53086638 -0.45697951
C   0.32085434  2.83204818  2.41111922
C   0.54730219  2.68234611  0.93506652
C  -1.18082821 -0.04019805  1.70175970
C   0.77000111 -0.27252403  1.27577353
C  -2.22708535 -1.02032304  1.88875425
C   0.11795944 -1.47936273  1.98608077
C  -0.36483064  0.47103360  0.79839939
C  -1.31780064 -1.83788657  1.16271734
C   3.19740343  1.24429882  2.44542217
C  -0.30814418  2.10102224 -0.61980647
C   0.52964789 -2.13421607 -0.07123338
C  -2.09484053  1.54171860  1.03388178
C   2.64493060  0.65421969 -1.39983523
C   2.55574703 -1.65405023 -2.07207656
C  -3.56278801 -0.96520537 -0.52514344
C  -1.85437572 -1.80821276 -2.89356971
C   1.42492366  1.18548787 -2.36943269
C   1.11002028 -1.00619423 -1.86476970
C  -3.14734530 -2.25800586 -1.74620128
C  -0.55483824 -0.42614111 -0.51578563
N   0.48035675  0.32069165 -1.43344951
O   2.18809104  3.05907083 -0.56381035
O  -1.76651549 -0.82439351 -1.45106363
O   3.00289822  1.63376963  0.95337152
O   3.18857813 -0.34146607 -2.37764287
S  -2.06133604  0.69760269 -0.63744646
S  -1.09123147  0.59497386 -2.62981081
