20
SMILES=CCCCCC local2geo input=clean-soft; bond=0.008167 angle=0.149809 clash=0.066273 anti=0.009354; explicit hydrogens
H  -2.56772542 -1.63203275  1.06112552
H  -0.74139369 -2.77644587  1.55169606
H  -1.24051821 -1.28403127  2.00044560
H   1.50605905  2.51796365  1.52389801
H   2.88736749  2.00429893  0.52696538
H   1.49788857  3.42083883  0.01302739
H  -1.67295182 -2.13144088 -1.31253445
H  -0.17929628 -2.58694720 -0.34502077
H   0.12124761  1.74353743 -0.03107069
H   1.53202677  0.59243792  0.12949979
H  -0.53541875 -0.14184789  0.51333982
H  -1.55512691 -0.09300976 -0.91058046
H   1.21807790 -0.33488977 -1.66970074
H  -0.36715928  1.02747619 -1.99409783
C  -1.63966846 -2.15450239  1.36873972
C   2.03724837  2.68552494  0.57797271
C  -1.16740835 -2.12281418 -0.38232130
C   1.07199216  1.42245448 -0.40997085
C  -0.62271637 -0.49614927 -0.51868039
C   0.41747531  0.33957842 -1.69273233
