36
SMILES=CCCCCCCCc1ccccc1 local2geo input=clean-soft; bond=0.010154 angle=0.139938 clash=0.143292 ring=0.004631 conj=0.341340 anti=0.197952 chain=0.015522; anti_worst_deg=90.26 anti_within30=0.667; explicit hydrogens
H  -0.79123020 -1.12701797  0.46879420
H   0.30520743  0.59636551  2.77424932
H  -1.11307120 -0.01557831 -0.46069553
H  -2.67005706 -0.38881272  2.47656178
H  -0.22073543  2.49471617  1.14426744
H   3.46909976 -1.50435126  3.09420633
H   3.30480838 -2.98471427  2.27502370
H   4.56603241 -1.25540054  1.87769628
H  -3.58252573  1.93625438  0.15962660
H  -3.22606301 -0.04422463 -0.27891347
H   3.01105070 -0.51781046  0.89260751
H   2.03892279 -2.24021149  1.06721222
H  -1.72986853  2.62379551 -2.06440401
H  -2.42249966  2.76279759 -0.71518713
H   1.66844285 -2.34861588 -0.83206910
H   2.81714582 -0.54239184 -1.03252709
H  -1.79314327 -0.10888951 -1.96335244
H  -0.48820376  1.48272836 -1.78845906
H   1.17493331  0.35694632 -1.38917947
H   0.13929227 -1.32246161 -1.40269327
H   0.54581863  0.85739356 -3.22713995
H  -0.64331764 -0.93409842 -3.17544794
C  -0.46157306 -0.36309195  1.13662910
C  -0.54356802 -0.05510398  2.61434865
C  -0.73912638  0.72847754  0.16981944
C  -1.99072182  0.44684246  2.57706928
C  -1.14627039  1.97943246  0.90796679
C  -2.41247702  1.45693934  1.52199972
C   3.89697194 -2.02971721  2.20368862
C  -3.12718916  0.99799073 -0.17117418
C   2.83922672 -1.62252593  0.78478020
C  -2.54233575  1.97963619 -1.57275534
C   2.30054760 -1.50101757 -0.96291864
C  -1.20306706  0.82329321 -2.13106132
C   0.88824260 -0.57221818 -1.74811363
C  -0.11869761 -0.04535550 -3.23045516
