41
SMILES=CCCCCCCCCCCCC local2geo input=clean-soft; bond=0.010552 angle=0.173965 clash=0.138102 anti=2.218843; explicit hydrogens
H   1.28782856  0.06841225  3.65465522
H  -0.13199589 -0.79657811  4.08808279
H   1.74078739 -1.50907826  3.37508059
H  -1.45735061  1.24287200  3.53365588
H   0.10850576  1.19761705  4.21036005
H  -0.78429836  2.76087308  3.08760738
H  -0.46343839 -2.17755222  1.95040965
H   1.10947955 -1.45099807  1.72913194
H  -0.06623391  2.04066253  1.54173779
H  -0.12178993  0.54597908  2.35327387
H  -1.58979988  0.35440734  1.48426700
H  -1.50180721 -1.21709800  0.63524258
H   2.14862990 -0.15746854  0.97776443
H   1.30163622  1.18128860  0.20330936
H   0.00589214  0.31762198 -0.52653384
H  -0.53395915  1.77557886 -0.15027970
H   0.07525170 -2.03931570  0.24795955
H   1.66153574 -1.10900784 -0.67790157
H  -0.25256944  2.23303032 -1.87759757
H   0.72056115  0.87587744 -1.79613197
H   0.39241189 -0.65142155 -1.98031569
H  -1.30865848 -1.10607100 -1.23697209
H   1.12378752  0.33745974 -3.53359222
H   0.78003615  1.93698835 -3.63316941
H  -1.95902836 -1.19996333 -2.98952556
H  -0.08189943 -2.11635089 -3.47733974
H  -1.57939112  0.15448633 -4.23640347
H   0.33461776 -0.81481290 -4.61339283
C   0.86367995 -0.93929380  3.72097373
C  -0.52595848  1.85407913  3.62846470
C   0.12098721 -1.31747353  2.10719585
C   0.49471381  1.34321535  2.15157843
C  -0.97508961 -0.32854140  0.95842576
C   1.21516228  0.31986886  0.89566469
C  -0.88660675  0.80167329 -0.45574650
C   0.76591253 -1.33775294 -0.20026256
C  -0.31910327  1.17696190 -2.09979105
C  -0.33515796 -1.34102559 -1.63858080
C   0.22634307  0.96911603 -3.73659611
C  -0.98223555 -1.55831182 -3.24253488
C  -0.62138844 -0.31995410 -4.43217373
