9
SMILES=CCO local2geo input=clean-soft; bond=0.008860 angle=0.122296 clash=0.096072 ring=0.000322 conj=0.000000 anti=0.000000 chain=0.000000; anti_worst_deg=0.00 anti_within30=0.000; explicit hydrogens
H  -1.20836675  1.18002701 -0.63622552
H   0.58987099 -1.48704541  0.18741611
H   0.72069901  0.03001103  1.36690867
H  -0.77157992 -0.67681521  0.85668194
H   0.14994571 -0.53612548 -0.99808240
H   0.28113464  0.98548132  0.19555408
C   0.27687404 -0.84294760  0.95428568
C   0.56860691  0.29894185 -0.55418223
O  -0.60718465  1.04847229 -1.37235641
