12
SMILES=c1ccccc1 local2geo input=clean-soft; bond=0.001803 angle=0.322304 clash=0.229870 ring=0.003430 conj=0.175319 anti=0.000000 chain=0.000000; anti_worst_deg=0.00 anti_within30=0.000; explicit hydrogens
H  -0.83235586  0.30108711  1.33971965
H   0.89668912 -1.69549799  0.65170753
H   2.10408068  0.95553863  0.64727879
H  -1.93748415 -1.14982760 -0.78281188
H   1.29097748  1.63277996 -1.17375243
H  -1.48677802  0.37573582 -1.71248519
C   0.16851762 -0.15526372  1.36711168
C  -0.15234479 -1.48799634  0.78235161
C   1.08373666  0.69418442  0.76142371
C  -1.04321659 -0.91488397 -0.24813071
C   0.58099431  1.06050897 -0.61846817
C  -0.67281640  0.38363472 -1.01394451
