31
SMILES=COC(=O)Cc1c(C)oc2cc(N)ccc2c1=O local2geo input=clean-soft; bond=0.005811 angle=0.143280 clash=0.263106; explicit hydrogens
H   0.12321325  0.26151815  2.12304020
H  -1.92580926  0.49309146 -0.03913603
H   1.70644045 -0.22123608  1.27794075
H  -2.78489304  0.66048717  1.33440697
H  -1.62914658  0.28034055  2.42323399
H   0.73933113  3.05811453 -0.48948252
H   1.54620540  2.37788010  1.10740578
H   2.33418822  2.13253355 -0.40585917
H  -2.15548658 -1.72260439 -0.89370418
H  -0.91025114 -2.49949169  0.48834938
H  -1.92350566 -1.81499088  0.41438285
H   0.45413497 -2.46560574 -0.03402990
H   2.03180385 -1.21288085  0.10719766
C   0.15438463 -0.26979929  0.20762055
C  -0.41288382 -1.73615062 -1.54243886
C   0.34114841  1.13419378  1.55570149
C  -0.98787367  1.51209569  1.03989589
C   1.01333010 -1.75669765 -1.34317946
C  -1.24731660  1.20015788 -0.38045463
C   1.55242467  0.64874423  0.68712008
C   1.80018973 -0.68477952 -1.83166599
C  -0.19542634  0.49003810 -1.34848881
C   1.31155550  0.32281563 -0.92321604
C   1.51100874  2.61407733  0.07739841
C  -1.50217164 -2.40925217 -0.40694821
C   1.09260666 -1.66346955  0.18008220
N  -2.10033917  1.05722201  1.96875703
O  -0.95022529 -0.50652927 -0.16514635
O   1.23911345 -0.23098288 -2.84961581
O   0.45394918  1.48079658 -0.19120957
O  -0.67969924 -0.52963668 -2.14795828
