12
SMILES=c1ccccc1 local2geo input=clean-soft; bond=0.002318 angle=0.307879 clash=0.284910 ring=0.004068 conj=0.198889 anti=0.000000 chain=0.000000; anti_worst_deg=0.00 anti_within30=0.000; explicit hydrogens
H  -1.18949664  0.19407362  1.42492259
H   1.27631295 -1.37815964  0.43018806
H   1.62580144  0.37984264  0.53560781
H  -1.66006064 -0.80418628 -0.47316277
H   1.64598465  1.25177443 -0.88512093
H  -1.66536689  0.41449866 -1.42033255
C  -0.20224425 -0.16536894  1.49317062
C   0.28396338 -1.38193941  0.75775760
C   0.58320630  0.54816175  0.47341704
C  -0.63496530 -0.75925863 -0.28215295
C   0.60544330  1.19295537 -0.90689981
C  -0.66857857  0.50760627 -1.14739478
