60
SMILES=C=C(CSCCCSc1ccc(C(=O)C(C)(C)N2CCOCC2)cc1)C(=O)OC local2geo input=clean-soft; bond=0.006948 angle=0.201847 clash=0.279081; explicit hydrogens
H  -0.17581679  2.82976294  2.68070173
H   1.46239054  2.41805220  2.58139229
H  -2.09610009 -0.65171045  1.75393391
H   0.13523076  0.71875364 -0.10395148
H  -2.00314617 -2.16655064  1.73645520
H   0.13734873 -1.42990613  0.47402415
H   2.31448483 -0.46337342  2.16191578
H   3.16671968  0.17277959  1.17068660
H   1.83761609  0.78900731  2.68420315
H   0.04294093  1.91483748  0.53880167
H  -1.14132667  2.68832207  0.33851734
H  -0.95237207 -1.38858306  2.52416587
H  -0.07277512 -0.52292186  3.01918149
H  -1.62526810  0.56297046  2.66706228
H  -0.01606908 -0.58263361  1.57401907
H   0.81128174  0.04573656  1.30136395
H  -0.83495146  1.24472582  1.51575220
H   2.04199815 -1.04235184 -0.04001639
H   1.46553540 -0.01260485  0.10544955
H   2.25246906 -2.93390250 -0.82203585
H   3.07983160 -1.92987657 -0.75280809
H  -2.02479315  0.19412857 -1.19667876
H  -1.49271786 -0.76906103 -1.66965127
H   0.06231260  0.61106175 -3.30793381
H  -0.15420482 -1.05532372 -2.42830896
H   2.11034489  1.02202511 -1.73797119
H   0.87686300  1.41958320 -1.57869303
H   0.19374566 -2.60548472 -1.45297754
H   1.08425915 -2.13719893 -0.30591825
H  -2.49793363 -1.57095718 -2.51570487
H  -1.30284333 -1.99726737 -2.88096666
C   2.19838643  2.54892039  0.63834226
C  -2.36407757 -0.84675008 -0.21049865
C   0.74863869  3.13128996  2.23348308
C   0.86913568  3.25894308  0.83669823
C  -2.77408981 -0.08226832  1.26696944
C  -0.78469992  0.27572003 -0.48306480
C  -2.71452165 -1.67003167  1.10888028
C  -0.70657074 -1.30033731 -0.20903999
C  -2.09039783  0.83482724  0.17119668
C  -1.89410353 -2.07501149 -0.02172614
C   2.65071535  0.56466812  2.02021360
C  -0.22426130  2.60867834 -0.20949045
C  -1.10102832 -0.36048293  2.71854377
C  -0.07460352  0.49640667  1.59269714
C   2.21136045 -0.18102522 -0.64969522
C   2.52675176 -2.26358628 -1.60902882
C  -1.96623743  0.02915328 -2.24362206
C  -0.50328982 -0.18578109 -2.91470838
C   1.22869503  0.41815507 -1.60023928
C   1.01844037 -1.94680965 -1.32923138
C  -1.80983365 -1.10194051 -3.23826265
C  -1.02523661 -0.35551378  0.83911484
N   0.31159434 -0.55126864 -0.83611995
O   2.14392686  2.53896141 -0.61670035
O  -3.27450919 -0.61434704 -1.08719599
O   1.84151089  1.23501027  1.01181400
O   2.64125204 -0.85621500 -1.85837007
S  -2.90726805  1.30310774 -1.35101056
S  -0.86073488  1.77548814 -2.00395894
