48
SMILES=O=C(CC(F)(F)F)NCC1CN(c2ccc3c(c2)CCCc2cn[nH]c2-3)C(=O)O1 local2geo input=clean-soft; bond=0.003570 angle=0.163663 clash=0.103839; explicit hydrogens
H  -0.74911243  1.54814661  0.71198320
H   0.71509421 -1.70538235  1.09344602
H  -1.14742708  0.22650717  1.56221271
H  -2.97577429 -1.46582425  1.31702960
H   1.73631632  2.61379719  0.79474205
H   0.68598914  0.36429748 -2.24473715
H   2.57812691 -1.03700900 -0.29846928
H   2.81475759  0.09519054  0.44270796
H  -1.98068643 -2.19680166  2.36967111
H  -0.46099606 -3.44395638  1.67096496
H   1.61508334  0.18519340  2.53817582
H   1.37320042 -1.16594470  2.26346207
H   0.36582091  3.23656988  0.35519230
H  -0.81399339  3.12397528 -0.13719313
H  -0.75481164 -0.28594151 -2.07905030
H  -1.04482627  0.68141544 -0.59020787
H  -1.05419230 -0.94802248  2.99341607
H   0.40246233 -2.33363724  2.48728800
H  -0.32935554  1.91703558 -2.42504978
C  -3.11419821  1.21566272 -1.59860158
C   2.67493176  1.62284327 -0.73547536
C   0.29295447  1.31263292  0.64939433
C  -0.31018436 -1.59385264  0.83884698
C  -1.27130616 -0.54085022  0.85055774
C  -2.78219151 -1.93697274  0.38447264
C  -0.44230455 -2.02797890 -0.35728177
C  -2.37301731 -0.67128903 -0.07935247
C  -1.55106854 -2.68249273  0.52161258
C   0.79965031  0.07749698  0.97651702
C   0.55858237 -0.69338518 -0.34604856
C   2.66401625 -0.97354782 -1.98399150
C   2.95667195 -0.05677912 -0.61380523
C  -1.17996943 -2.84457827  2.17984366
C   0.72032636 -0.40895370  2.54580092
C   0.11850528  3.22362685 -0.69718421
C  -1.14809215  0.58954006 -1.61666894
C  -0.26382142 -1.67075467  2.96603322
C  -0.93642056  2.19512057 -1.61075056
N   0.63536930  1.25273967 -0.64733624
N   1.70852363  2.80799413 -0.20915754
N  -2.42141104 -0.07443966 -1.47533476
N   0.92864645  0.20149471 -1.28168309
O  -3.14227390  1.50359023 -0.38568065
O   2.17007279  1.73858190 -1.86083734
O  -2.28283024  2.28068161 -2.18501043
F   2.09872270 -2.15600681 -1.60265481
F   2.45494962  0.05664549 -2.79413843
F   1.46149123 -1.15637851 -2.65766978
