11
SMILES=CC(=O)N1CCCC1C(=O)O local2geo input=clean mean_edge_confidence=0.999994; heavy atoms only
C  -0.35627002  0.21849512  0.38930437
C   0.05630041 -0.13072796  0.95919460
C   1.00553262 -0.51617777  0.24325997
C   0.08560349 -0.10327508 -0.96021140
C   0.20410806  0.01419310 -0.67394447
C   0.78767264  0.48454082 -2.17856169
C   1.40525293 -0.24850257 -1.63841796
N  -1.10011971 -0.03823477 -0.98094267
O  -0.77056432  0.31728202  1.59584558
O  -0.58988321 -0.71245486  1.85003364
O  -0.72763270  0.71486199  1.39443994
