28
SMILES=Fc1ccc(C2NN=Cc3ccccc32)cc1 local2geo_demo
F   2.90819710 -0.56499982  4.06251365
C   2.31683372 -0.65029021  2.87852821
C   1.08022938 -1.32489576  2.74799320
C   0.44973300 -1.40948258  1.48375107
C   1.06134564 -0.81754614  0.35505224
C   0.41496363 -0.86371830 -1.01441750
N   1.36889300 -0.22059038 -1.93148862
N   1.23291519  1.12750005 -2.35426623
C   0.15026639  1.84052783 -2.09582893
C  -1.02720649  1.19205141 -1.41038130
C  -2.23958661  1.90212682 -1.26607720
C  -3.35911136  1.27126392 -0.68067919
C  -3.26006565 -0.06628330 -0.23729562
C  -2.03595174 -0.76377951 -0.35607884
C  -0.91445454 -0.13160779 -0.94072661
C   2.29755353 -0.14809449  0.48933461
C   2.92620107 -0.06391960  1.74879638
H   0.62174684 -1.76812064  3.60398567
H  -0.48534777 -1.91463805  1.38412421
H   0.25595656 -1.87793858 -1.30689815
H   2.20124282 -0.73657449 -2.20763887
H   0.08122433  2.84957028 -2.43641578
H  -2.31423585  2.90793403 -1.61552281
H  -4.28018409  1.80141917 -0.58072975
H  -4.10791586 -0.54653807  0.19842329
H  -1.95788903 -1.76710558 -0.00021105
H   2.75529568  0.29891641 -0.36506611
H   3.85935112  0.44481335  1.84721999
