29
SMILES=O=C(CC(F)(F)F)NCC1CN(c2ccc3c(c2)CCCc2cn[nH]c2-3)C(=O)O1 local2geo input=clean mean_edge_confidence=0.999993; heavy atoms only
C  -1.81321239  0.87106180  1.25852072
C  -0.94019264  1.08191061  1.14400256
C  -0.16553430 -2.10684299  0.64807981
C   1.56632245 -2.85775995  0.29980296
C   0.41208291 -2.42460275  1.06434047
C   1.09932113 -1.07405651  0.10447318
C   1.35774887 -2.86809134 -1.11756206
C  -0.29483473 -1.27903378  0.44905666
C   1.74620819 -1.58474433 -1.09986651
C   0.41050234 -1.49658310 -0.56357038
C  -0.08829806 -2.47932124 -1.43925929
C   1.25881302  2.58958697  0.29793602
C   0.50287634  1.17926955  0.42869404
C   2.60728025 -0.78602767 -2.02419496
C   0.52459466  0.00900882 -1.19692540
C  -1.03962266  1.19765830 -1.11432993
C  -1.86355519  1.26496994 -0.70661539
C   1.89832127  0.45865422 -1.87307835
C  -0.91486907  2.46188998 -0.39878565
N  -1.38518822 -2.59856653  0.36730868
N  -1.67090046  0.58233255 -0.00523135
N  -1.43278468 -0.00776321  0.16368048
N  -1.39658499 -2.68858743 -0.92212683
O  -2.74864030  0.51146591  2.06511688
O  -1.24952292  0.54187399  2.27470994
O  -1.19826138  2.18448687  1.00029218
F   2.59142756  2.79015684  0.33763921
F   1.08447719  3.24907303 -0.85515785
F   1.14202619  3.27858186  1.41305017
