29
SMILES=O=C(CC(F)(F)F)NCC1CN(c2ccc3c(c2)CCCc2cn[nH]c2-3)C(=O)O1 local2geo input=clean mean_edge_confidence=0.999993; heavy atoms only
C  -2.09973693  0.99849027  1.11525655
C  -1.12278807  1.06065083  1.18082261
C  -0.22942460 -2.66028404  0.49008441
C   1.92891324 -2.26343846  0.42374060
C   0.81014061 -2.75376511  0.94335729
C   1.07944870 -1.91285384  0.31688118
C   1.44746411 -2.56708407 -0.88214701
C  -0.39900565 -1.82777107  0.77072865
C   1.73742390 -1.36892843 -1.12697124
C   0.59638089 -1.74423087 -0.49168438
C  -0.26538348 -2.52471399 -1.23118949
C   1.39940012  2.59421921  0.20175517
C   0.34261373  1.24792898  0.19667803
C   2.63572073 -0.65924370 -2.35767627
C   0.82334930 -0.13711034 -1.50558972
C  -1.04116642  1.20039082 -0.98115581
C  -2.01102495  1.85191977 -0.71345627
C   2.18476772  0.65659517 -1.91464448
C  -0.78761852  2.58220768 -0.38514343
N  -1.60371292 -2.56979465  0.44352800
N  -1.89680147  0.67266202  0.06070881
N  -1.70067668  0.03495905  0.07343842
N  -1.70032477 -2.50156784 -0.77771431
O  -2.77709723  0.38494202  2.03376436
O  -1.40870273  0.50018251  2.32400560
O  -1.11188424  2.18185568  0.98260903
F   2.70723653  3.01373196  0.39217341
F   1.16396952  3.28419852 -0.92921239
F   1.29851949  3.22585416  1.34705245
