29
SMILES=O=C(CC(F)(F)F)NCC1CN(c2ccc3c(c2)CCCc2cn[nH]c2-3)C(=O)O1 local2geo input=clean mean_edge_confidence=0.999993; heavy atoms only
C  -1.61966217  0.85523885  1.39778340
C  -0.80177605  0.97396094  1.10186505
C  -0.28545982 -1.75807273  0.59562325
C   1.18909681 -3.13773561  0.32832116
C   0.18754947 -2.33562994  0.98671728
C   1.16003036 -0.73394722 -0.11108372
C   1.30290246 -2.90738726 -1.05384386
C  -0.13803144 -1.05903471  0.35835594
C   1.91968918 -1.65491867 -0.93025154
C   0.30550352 -1.32690799 -0.63324064
C  -0.03496030 -2.40656948 -1.48761606
C   1.19742405  2.58090401  0.37230521
C   0.67529410  1.12426984  0.61339605
C   2.52299190 -0.83768177 -2.00635552
C   0.42526305  0.13677667 -1.13195717
C  -1.00592494  1.15501058 -1.18619525
C  -1.80410349  1.05985558 -0.74169779
C   1.75155449  0.43790746 -1.89214420
C  -1.07026732  2.41412854 -0.45647314
N  -1.29903269 -2.60219073  0.32956156
N  -1.45520079  0.40432128 -0.07125529
N  -1.34705794 -0.01388841  0.26738638
N  -1.21561253 -2.90251827 -0.93825036
O  -2.70545411  0.61357290  2.04622698
O  -1.12707841  0.56343538  2.27386880
O  -1.23199129  2.20001602  0.97747815
F   2.53163385  2.62664437  0.33535969
F   0.96239799  3.19936252 -0.79046226
F   1.01028240  3.33107901  1.44657874
