60
SMILES=C=C(CSCCCSc1ccc(C(=O)C(C)(C)N2CCOCC2)cc1)C(=O)OC local2geo input=clean-soft seed=differentiable; bond=0.009872 angle=0.196340 clash=0.383616; explicit hydrogens
H  -0.20136313  2.45853782  2.96181989
H   1.47008073  2.54989862  2.83388638
H  -2.07228374  0.43671438  2.06455302
H   0.45315015  0.32821798  0.23931386
H  -1.93170440 -2.21416569  1.67557108
H   0.03871206 -1.82697201  0.61116630
H   1.94891572 -0.48409104  2.31949782
H   3.16630888 -0.14249399  1.47826421
H   1.69632483  1.02531683  2.55225945
H  -0.05961949  1.70619488  0.36039120
H  -1.30509770  2.61139750  0.44614387
H  -2.12111831 -0.86077017  2.56645989
H  -0.26075405 -1.62007880  2.28052664
H  -1.11606991 -0.03940608  3.01001501
H   0.46585080 -0.12898597  1.92369473
H   0.66030848  1.13862908  1.29861975
H  -0.86079967  1.51025319  1.65410364
H   2.02042031 -0.47018811 -0.19063699
H   1.87793386  1.12133610 -0.88699198
H   2.29696012 -3.00509930 -0.84575522
H   2.96769881 -1.83625197 -0.32912549
H  -1.36858237 -0.56661224 -0.62674290
H  -0.60459590 -1.27338183 -1.38628447
H  -0.78370631  0.94198316 -3.72400522
H  -2.16161847  0.23923479 -3.14396358
H   1.45323658  1.18155944 -2.25800276
H   0.56575871  0.46073964 -2.99318314
H   0.33262497 -2.55132985 -1.41461694
H   1.18226445 -1.85328257 -0.24646658
H  -2.34534311 -1.97114050 -2.20650935
H  -0.91338843 -2.24532723 -2.48158741
C   2.12215829  2.56908393  0.76071823
C  -2.55825782 -0.65289122 -0.29330346
C   0.58299923  3.06024361  2.51733494
C   0.69046003  3.11760712  1.09633768
C  -2.62760520  0.03647676  1.28753662
C  -0.49004793  0.24948944 -0.26275647
C  -2.65424347 -1.59832954  1.19764292
C  -0.65545154 -1.43186450 -0.14025705
C  -1.85416210  0.81973046  0.19873855
C  -2.05550027 -1.94413960 -0.06692156
C   2.47487807  0.46235633  2.07636189
C  -0.38162875  2.59271693 -0.08497521
C  -1.09163582 -1.02331972  2.56710649
C  -0.16712147  0.73170507  1.76244390
C   2.23568892  0.11453123 -1.04511857
C   2.67362881 -2.10407829 -1.35324621
C  -1.32879162 -0.55474865 -1.69771922
C  -1.16852009  0.02288288 -3.37857533
C   1.21634531  0.10887899 -2.22020030
C   1.08629024 -1.82549489 -1.29568994
C  -1.61431825 -1.49778903 -2.87350035
C  -1.02092814 -0.42998710  0.90704632
N   0.27345175 -0.60144585 -1.00828266
O   2.13157916  2.80200624 -0.48413888
O  -3.09796476 -0.69004095 -1.43480384
O   2.21808219  1.11405075  0.75657386
O   3.15259600 -0.76402593 -1.71400011
S  -2.31054664  1.02986979 -1.41608810
S  -0.27194172  1.66609085 -1.90067971
