23
SMILES=CCCCCCC local2geo input=clean-soft seed=differentiable; bond=0.004708 angle=0.138844 clash=0.121799; explicit hydrogens
H  -1.10165727  1.93643141  1.67642236
H  -0.86904532  0.53551823  2.43761039
H   0.74200648  1.16815376  2.26460934
H  -1.10024989 -1.07242787  1.28401256
H   0.89403027 -1.66740966  1.06473565
H   0.26302785 -0.65364176  1.90354156
H  -0.97357380  0.46315688  0.34278178
H   0.86046225  0.25389478  0.52118570
H  -1.35370839 -1.53168762 -0.21353234
H   0.69885153 -1.91085804 -0.37857243
H   1.18373084  1.01141632 -0.95523757
H  -0.83932251  1.31991124 -1.17912352
H   0.77127343 -0.54716730 -1.04322982
H  -1.06580639 -0.25999644 -1.23830795
H   1.18446207 -0.19256131 -2.52459264
H   1.18709350  1.16410005 -2.53400707
C  -0.29332873  1.40101182  2.14098978
C  -0.14621629 -1.54294586  1.37993217
C  -0.02102303  0.86010146  0.52684945
C  -0.37123120 -1.90361822 -0.31034955
C   0.18955603  1.41441607 -1.07532644
C  -0.18745530 -0.73723489 -1.50847888
C   0.34812376  0.49143648 -2.58191180
